(set-logic QF_LRA)
(declare-fun __z3_59 () Bool)
(declare-fun __z3_0 () Bool)
(declare-fun __z3_60 () Bool)
(declare-fun __z3_1 () Bool)
(declare-fun __z3_2 () Bool)
(declare-fun __z3_3 () Bool)
(declare-fun __z3_4 () Bool)
(declare-fun __z3_61 () Real)
(declare-fun __z3_5 () Bool)
(declare-fun __z3_62 () Real)
(declare-fun __z3_6 () Bool)
(declare-fun __z3_63 () Real)
(declare-fun __z3_7 () Bool)
(declare-fun __z3_64 () Real)
(declare-fun __z3_8 () Bool)
(declare-fun __z3_9 () Bool)
(declare-fun __z3_65 () Real)
(declare-fun __z3_10 () Bool)
(declare-fun __z3_11 () Bool)
(declare-fun __z3_12 () Bool)
(declare-fun __z3_66 () Real)
(declare-fun __z3_13 () Real)
(declare-fun __z3_14 () Real)
(declare-fun __z3_15 () Real)
(declare-fun __z3_16 () Real)
(declare-fun __z3_67 () Real)
(declare-fun __z3_17 () Bool)
(declare-fun __z3_68 () Real)
(declare-fun __z3_18 () Real)
(declare-fun __z3_19 () Real)
(declare-fun __z3_20 () Bool)
(declare-fun __z3_69 () Real)
(declare-fun __z3_21 () Bool)
(declare-fun __z3_70 () Real)
(declare-fun __z3_22 () Bool)
(declare-fun __z3_71 () Real)
(declare-fun __z3_23 () Real)
(declare-fun __z3_72 () Real)
(declare-fun __z3_24 () Real)
(declare-fun __z3_25 () Bool)
(declare-fun __z3_26 () Bool)
(declare-fun __z3_47 () Bool)
(declare-fun __z3_27 () Bool)
(declare-fun __z3_73 () Real)
(declare-fun __z3_48 () Bool)
(declare-fun __z3_28 () Bool)
(declare-fun __z3_74 () Real)
(declare-fun __z3_29 () Bool)
(declare-fun __z3_49 () Real)
(declare-fun __z3_30 () Bool)
(declare-fun __z3_31 () Real)
(declare-fun __z3_32 () Bool)
(declare-fun __z3_33 () Bool)
(declare-fun __z3_34 () Bool)
(declare-fun __z3_35 () Bool)
(declare-fun __z3_36 () Bool)
(declare-fun __z3_37 () Bool)
(declare-fun __z3_38 () Bool)
(declare-fun __z3_39 () Bool)
(declare-fun __z3_40 () Bool)
(declare-fun __z3_41 () Bool)
(declare-fun __z3_42 () Bool)
(declare-fun __z3_43 () Bool)
(declare-fun __z3_44 () Real)
(declare-fun __z3_45 () Real)
(declare-fun __z3_50 () Real)
(declare-fun __z3_51 () Real)
(declare-fun __z3_52 () Real)
(declare-fun __z3_46 () Real)
(declare-fun __z3_53 () Real)
(declare-fun __z3_54 () Real)
(declare-fun __z3_55 () Real)
(declare-fun __z3_56 () Real)
(declare-fun __z3_57 () Bool)
(declare-fun __z3_58 () Bool)
(assert (let ((.def_0 (= __z3_62 __z3_74))) (let ((.def_1 (= __z3_56 4.0))) (let ((.def_2 (or .def_1 .def_0))) (let ((.def_3 (= __z3_62 __z3_66))) (let ((.def_4 (not .def_1))) (let ((.def_5 (or .def_4 .def_3))) (let ((.def_6 (= __z3_74 __z3_73))) (let ((.def_7 (= __z3_56 3.0))) (let ((.def_8 (or .def_7 .def_6))) (let ((.def_9 (= __z3_74 __z3_65))) (let ((.def_10 (not .def_7))) (let ((.def_11 (or .def_10 .def_9))) (let ((.def_12 (= __z3_73 __z3_63))) (let ((.def_13 (= __z3_56 2.0))) (let ((.def_14 (or .def_13 .def_12))) (let ((.def_15 (= __z3_73 __z3_64))) (let ((.def_16 (not .def_13))) (let ((.def_17 (or .def_16 .def_15))) (let ((.def_18 (= __z3_61 __z3_72))) (let ((.def_19 (or .def_1 .def_18))) (let ((.def_20 (= __z3_61 __z3_53))) (let ((.def_21 (or .def_4 .def_20))) (let ((.def_22 (= __z3_72 __z3_71))) (let ((.def_23 (or .def_7 .def_22))) (let ((.def_24 (= __z3_72 __z3_52))) (let ((.def_25 (or .def_10 .def_24))) (let ((.def_26 (= __z3_71 __z3_50))) (let ((.def_27 (or .def_13 .def_26))) (let ((.def_28 (= __z3_71 __z3_51))) (let ((.def_29 (or .def_16 .def_28))) (let ((.def_30 (= __z3_45 __z3_70))) (let ((.def_31 (= __z3_31 4.0))) (let ((.def_32 (or .def_31 .def_30))) (let ((.def_33 (= __z3_45 __z3_53))) (let ((.def_34 (not .def_31))) (let ((.def_35 (or .def_34 .def_33))) (let ((.def_36 (= __z3_70 __z3_69))) (let ((.def_37 (= __z3_31 3.0))) (let ((.def_38 (or .def_37 .def_36))) (let ((.def_39 (= __z3_70 __z3_52))) (let ((.def_40 (not .def_37))) (let ((.def_41 (or .def_40 .def_39))) (let ((.def_42 (= __z3_69 __z3_50))) (let ((.def_43 (= __z3_31 2.0))) (let ((.def_44 (or .def_43 .def_42))) (let ((.def_45 (= __z3_69 __z3_51))) (let ((.def_46 (not .def_43))) (let ((.def_47 (or .def_46 .def_45))) (let ((.def_48 (= __z3_44 __z3_68))) (let ((.def_49 (or .def_31 .def_48))) (let ((.def_50 (= __z3_44 __z3_16))) (let ((.def_51 (or .def_34 .def_50))) (let ((.def_52 (= __z3_68 __z3_67))) (let ((.def_53 (or .def_37 .def_52))) (let ((.def_54 (= __z3_68 __z3_15))) (let ((.def_55 (or .def_40 .def_54))) (let ((.def_56 (= __z3_67 __z3_13))) (let ((.def_57 (or .def_43 .def_56))) (let ((.def_58 (= __z3_67 __z3_14))) (let ((.def_59 (or .def_46 .def_58))) (let ((.def_60 (<= __z3_66 31.0))) (let ((.def_61 (<= 0.0 __z3_66))) (let ((.def_62 (<= __z3_65 31.0))) (let ((.def_63 (<= 0.0 __z3_65))) (let ((.def_64 (<= __z3_64 31.0))) (let ((.def_65 (<= 0.0 __z3_64))) (let ((.def_66 (<= __z3_63 31.0))) (let ((.def_67 (<= 0.0 __z3_63))) (let ((.def_68 (= __z3_55 0.0))) (let ((.def_69 (= __z3_56 1.0))) (let ((.def_70 (or .def_69 .def_13 .def_7 .def_1))) (let ((.def_71 (= __z3_54 4.0))) (let ((.def_72 (= __z3_54 3.0))) (let ((.def_73 (= __z3_54 2.0))) (let ((.def_74 (= __z3_54 1.0))) (let ((.def_75 (or .def_74 .def_73 .def_72 .def_71))) (let ((.def_76 (and __z3_48 true .def_1))) (let ((.def_77 (= __z3_53 __z3_66))) (let ((.def_78 (not .def_77))) (let ((.def_79 (=> .def_78 .def_76))) (let ((.def_80 (and __z3_48 true .def_7))) (let ((.def_81 (= __z3_52 __z3_65))) (let ((.def_82 (not .def_81))) (let ((.def_83 (=> .def_82 .def_80))) (let ((.def_84 (and __z3_48 true .def_13))) (let ((.def_85 (= __z3_51 __z3_64))) (let ((.def_86 (not .def_85))) (let ((.def_87 (=> .def_86 .def_84))) (let ((.def_88 (and __z3_48 true .def_69))) (let ((.def_89 (= __z3_50 __z3_63))) (let ((.def_90 (not .def_89))) (let ((.def_91 (=> .def_90 .def_88))) (let ((.def_92 (+ __z3_24 10.0))) (let ((.def_93 (= __z3_24 .def_92))) (let ((.def_94 (and __z3_48 true .def_93 .def_68 .def_71))) (let ((.def_95 (= __z3_18 4.0))) (let ((.def_96 (= __z3_19 0.0))) (let ((.def_97 (+ __z3_23 10.0))) (let ((.def_98 (= __z3_24 .def_97))) (let ((.def_99 (and __z3_47 true .def_98 .def_96 .def_95))) (let ((.def_100 (and .def_99 .def_94))) (let ((.def_101 (not .def_100))) (let ((.def_102 (or .def_99 .def_94))) (let ((.def_103 (= __z3_28 __z3_22))) (let ((.def_104 (not .def_103))) (let ((.def_105 (=> .def_104 .def_102))) (let ((.def_106 (and __z3_48 true .def_93 .def_68 .def_72))) (let ((.def_107 (= __z3_18 3.0))) (let ((.def_108 (and __z3_47 true .def_98 .def_96 .def_107))) (let ((.def_109 (and .def_108 .def_106))) (let ((.def_110 (not .def_109))) (let ((.def_111 (or .def_108 .def_106))) (let ((.def_112 (= __z3_27 __z3_21))) (let ((.def_113 (not .def_112))) (let ((.def_114 (=> .def_113 .def_111))) (let ((.def_115 (and __z3_48 true .def_93 .def_68 .def_73))) (let ((.def_116 (= __z3_18 2.0))) (let ((.def_117 (and __z3_47 true .def_98 .def_96 .def_116))) (let ((.def_118 (and .def_117 .def_115))) (let ((.def_119 (not .def_118))) (let ((.def_120 (or .def_117 .def_115))) (let ((.def_121 (= __z3_26 __z3_20))) (let ((.def_122 (not .def_121))) (let ((.def_123 (=> .def_122 .def_120))) (let ((.def_124 (and __z3_48 true .def_93 .def_68 .def_74))) (let ((.def_125 (= __z3_18 1.0))) (let ((.def_126 (and __z3_47 true .def_98 .def_96 .def_125))) (let ((.def_127 (and .def_126 .def_124))) (let ((.def_128 (not .def_127))) (let ((.def_129 (or .def_126 .def_124))) (let ((.def_130 (= __z3_25 __z3_17))) (let ((.def_131 (not .def_130))) (let ((.def_132 (=> .def_131 .def_129))) (let ((.def_133 (and __z3_48 true .def_68 .def_1))) (let ((.def_134 (= __z3_43 __z3_60))) (let ((.def_135 (not .def_134))) (let ((.def_136 (=> .def_135 .def_133))) (let ((.def_137 (and __z3_48 true .def_68 .def_7))) (let ((.def_138 (= __z3_42 __z3_59))) (let ((.def_139 (not .def_138))) (let ((.def_140 (=> .def_139 .def_137))) (let ((.def_141 (and __z3_48 true .def_68 .def_13))) (let ((.def_142 (= __z3_41 __z3_58))) (let ((.def_143 (not .def_142))) (let ((.def_144 (=> .def_143 .def_141))) (let ((.def_145 (and __z3_48 true .def_68 .def_69))) (let ((.def_146 (= __z3_40 __z3_57))) (let ((.def_147 (not .def_146))) (let ((.def_148 (=> .def_147 .def_145))) (let ((.def_149 (+ __z3_24 4.0))) (let ((.def_150 (= __z3_24 .def_149))) (let ((.def_151 (and __z3_48 true .def_150 .def_68 .def_1))) (let ((.def_152 (+ __z3_23 4.0))) (let ((.def_153 (= __z3_24 .def_152))) (let ((.def_154 (and __z3_47 true .def_153 .def_96 .def_31))) (let ((.def_155 (and .def_154 .def_151))) (let ((.def_156 (not .def_155))) (let ((.def_157 (or .def_154 .def_151))) (let ((.def_158 (= __z3_39 __z3_34))) (let ((.def_159 (not .def_158))) (let ((.def_160 (=> .def_159 .def_157))) (let ((.def_161 (and __z3_48 true .def_150 .def_68 .def_7))) (let ((.def_162 (and __z3_47 true .def_153 .def_96 .def_37))) (let ((.def_163 (and .def_162 .def_161))) (let ((.def_164 (not .def_163))) (let ((.def_165 (or .def_162 .def_161))) (let ((.def_166 (= __z3_38 __z3_33))) (let ((.def_167 (not .def_166))) (let ((.def_168 (=> .def_167 .def_165))) (let ((.def_169 (and __z3_48 true .def_150 .def_68 .def_13))) (let ((.def_170 (and __z3_47 true .def_153 .def_96 .def_43))) (let ((.def_171 (and .def_170 .def_169))) (let ((.def_172 (not .def_171))) (let ((.def_173 (or .def_170 .def_169))) (let ((.def_174 (= __z3_37 __z3_32))) (let ((.def_175 (not .def_174))) (let ((.def_176 (=> .def_175 .def_173))) (let ((.def_177 (and __z3_48 true .def_150 .def_68 .def_69))) (let ((.def_178 (= __z3_31 1.0))) (let ((.def_179 (and __z3_47 true .def_153 .def_96 .def_178))) (let ((.def_180 (and .def_179 .def_177))) (let ((.def_181 (not .def_180))) (let ((.def_182 (or .def_179 .def_177))) (let ((.def_183 (= __z3_36 __z3_30))) (let ((.def_184 (not .def_183))) (let ((.def_185 (=> .def_184 .def_182))) (let ((.def_186 (and __z3_48 true .def_150))) (let ((.def_187 (and __z3_47 true .def_153))) (let ((.def_188 (and .def_187 .def_186))) (let ((.def_189 (not .def_188))) (let ((.def_190 (and __z3_48 true))) (let ((.def_191 (and .def_190 .def_186))) (let ((.def_192 (not .def_191))) (let ((.def_193 (and .def_190 .def_187))) (let ((.def_194 (not .def_193))) (let ((.def_195 (or .def_190 .def_187 .def_186))) (let ((.def_196 (= __z3_35 __z3_29))) (let ((.def_197 (not .def_196))) (let ((.def_198 (=> .def_197 .def_195))) (let ((.def_199 (+ __z3_23 __z3_46))) (let ((.def_200 (<= .def_199 __z3_24))) (let ((.def_201 (= __z3_54 __z3_18))) (let ((.def_202 (= __z3_56 __z3_31))) (let ((.def_203 (= __z3_55 __z3_19))) (let ((.def_204 (and .def_203 .def_202 .def_201))) (let ((.def_205 (and __z3_48 __z3_47 .def_204))) (let ((.def_206 (=> .def_205 .def_200))) (let ((.def_207 (= .def_149 .def_152))) (let ((.def_208 (and __z3_48 __z3_47 .def_207))) (let ((.def_209 (not .def_208))) (let ((.def_210 (= .def_92 __z3_23))) (let ((.def_211 (and __z3_48 __z3_47 .def_210))) (let ((.def_212 (not .def_211))) (let ((.def_213 (= __z3_24 .def_199))) (let ((.def_214 (and __z3_48 __z3_47 .def_213))) (let ((.def_215 (not .def_214))) (let ((.def_216 (+ __z3_24 __z3_49))) (let ((.def_217 (= .def_216 .def_199))) (let ((.def_218 (and __z3_48 __z3_47 .def_217))) (let ((.def_219 (not .def_218))) (let ((.def_220 (= __z3_24 __z3_23))) (let ((.def_221 (and __z3_48 __z3_47 .def_220))) (let ((.def_222 (not .def_221))) (let ((.def_223 (= .def_92 .def_97))) (let ((.def_224 (and __z3_48 __z3_47 .def_223))) (let ((.def_225 (not .def_224))) (let ((.def_226 (and __z3_48 __z3_47 .def_153))) (let ((.def_227 (not .def_226))) (let ((.def_228 (< __z3_23 __z3_24))) (let ((.def_229 (and .def_68 .def_73))) (let ((.def_230 (or .def_229 __z3_17))) (let ((.def_231 (not .def_229))) (let ((.def_232 (or .def_231 __z3_20))) (let ((.def_233 (and .def_232 .def_230))) (let ((.def_234 (and .def_68 .def_72))) (let ((.def_235 (or .def_234 .def_233))) (let ((.def_236 (not .def_234))) (let ((.def_237 (or .def_236 __z3_21))) (let ((.def_238 (and .def_237 .def_235))) (let ((.def_239 (and .def_68 .def_71))) (let ((.def_240 (or .def_239 .def_238))) (let ((.def_241 (not .def_239))) (let ((.def_242 (or .def_241 __z3_22))) (let ((.def_243 (and .def_242 .def_240))) (let ((.def_244 (= .def_243 true))) (let ((.def_245 (=> true .def_244))) (let ((.def_246 (and .def_93 .def_245))) (let ((.def_247 (= __z3_29 false))) (let ((.def_248 (=> true .def_247))) (let ((.def_249 (and .def_68 .def_13))) (let ((.def_250 (or .def_249 __z3_30))) (let ((.def_251 (not .def_249))) (let ((.def_252 (or .def_251 __z3_32))) (let ((.def_253 (and .def_252 .def_250))) (let ((.def_254 (and .def_68 .def_7))) (let ((.def_255 (or .def_254 .def_253))) (let ((.def_256 (not .def_254))) (let ((.def_257 (or .def_256 __z3_33))) (let ((.def_258 (and .def_257 .def_255))) (let ((.def_259 (and .def_68 .def_1))) (let ((.def_260 (or .def_259 .def_258))) (let ((.def_261 (not .def_259))) (let ((.def_262 (or .def_261 __z3_34))) (let ((.def_263 (and .def_262 .def_260))) (let ((.def_264 (= .def_263 true))) (let ((.def_265 (=> true .def_264))) (let ((.def_266 (and .def_150 .def_265 .def_248))) (let ((.def_267 (or .def_249 __z3_57))) (let ((.def_268 (or .def_251 __z3_58))) (let ((.def_269 (and .def_268 .def_267))) (let ((.def_270 (or .def_254 .def_269))) (let ((.def_271 (or .def_256 __z3_59))) (let ((.def_272 (and .def_271 .def_270))) (let ((.def_273 (or .def_259 .def_272))) (let ((.def_274 (or .def_261 __z3_60))) (let ((.def_275 (and .def_274 .def_273))) (let ((.def_276 (= .def_275 true))) (let ((.def_277 (=> true .def_276))) (let ((.def_278 (= __z3_29 true))) (let ((.def_279 (=> true .def_278))) (let ((.def_280 (+ __z3_61 1.0))) (let ((.def_281 (= __z3_62 .def_280))) (let ((.def_282 (=> true .def_281))) (let ((.def_283 (= __z3_24 __z3_24))) (let ((.def_284 (and .def_283 .def_282 .def_279 .def_277))) (let ((.def_285 (or .def_229 __z3_40))) (let ((.def_286 (or .def_231 __z3_41))) (let ((.def_287 (and .def_286 .def_285))) (let ((.def_288 (or .def_234 .def_287))) (let ((.def_289 (or .def_236 __z3_42))) (let ((.def_290 (and .def_289 .def_288))) (let ((.def_291 (or .def_239 .def_290))) (let ((.def_292 (or .def_241 __z3_43))) (let ((.def_293 (and .def_292 .def_291))) (let ((.def_294 (<= .def_216 __z3_24))) (let ((.def_295 (< __z3_23 .def_216))) (let ((.def_296 (and .def_295 .def_294))) (let ((.def_297 (=> .def_296 .def_293))) (let ((.def_298 (or .def_249 __z3_25))) (let ((.def_299 (or .def_251 __z3_26))) (let ((.def_300 (and .def_299 .def_298))) (let ((.def_301 (or .def_254 .def_300))) (let ((.def_302 (or .def_256 __z3_27))) (let ((.def_303 (and .def_302 .def_301))) (let ((.def_304 (or .def_259 .def_303))) (let ((.def_305 (or .def_261 __z3_28))) (let ((.def_306 (and .def_305 .def_304))) (let ((.def_307 (or .def_249 __z3_40))) (let ((.def_308 (or .def_251 __z3_41))) (let ((.def_309 (and .def_308 .def_307))) (let ((.def_310 (or .def_254 .def_309))) (let ((.def_311 (or .def_256 __z3_42))) (let ((.def_312 (and .def_311 .def_310))) (let ((.def_313 (or .def_259 .def_312))) (let ((.def_314 (or .def_261 __z3_43))) (let ((.def_315 (and .def_314 .def_313))) (let ((.def_316 (not .def_315))) (let ((.def_317 (or .def_249 __z3_36))) (let ((.def_318 (or .def_251 __z3_37))) (let ((.def_319 (and .def_318 .def_317))) (let ((.def_320 (or .def_254 .def_319))) (let ((.def_321 (or .def_256 __z3_38))) (let ((.def_322 (and .def_321 .def_320))) (let ((.def_323 (or .def_259 .def_322))) (let ((.def_324 (or .def_261 __z3_39))) (let ((.def_325 (and .def_324 .def_323))) (let ((.def_326 (not .def_325))) (let ((.def_327 (not __z3_35))) (let ((.def_328 (and .def_13 .def_74))) (let ((.def_329 (or .def_328 false))) (let ((.def_330 (not .def_328))) (let ((.def_331 (or .def_330 false))) (let ((.def_332 (and .def_331 .def_329))) (let ((.def_333 (and .def_7 .def_74))) (let ((.def_334 (or .def_333 .def_332))) (let ((.def_335 (not .def_333))) (let ((.def_336 (or .def_335 false))) (let ((.def_337 (and .def_336 .def_334))) (let ((.def_338 (and .def_1 .def_74))) (let ((.def_339 (or .def_338 .def_337))) (let ((.def_340 (not .def_338))) (let ((.def_341 (or .def_340 false))) (let ((.def_342 (and .def_341 .def_339))) (let ((.def_343 (and .def_69 .def_73))) (let ((.def_344 (or .def_343 .def_342))) (let ((.def_345 (not .def_343))) (let ((.def_346 (or .def_345 true))) (let ((.def_347 (and .def_346 .def_344))) (let ((.def_348 (and .def_13 .def_73))) (let ((.def_349 (or .def_348 .def_347))) (let ((.def_350 (not .def_348))) (let ((.def_351 (or .def_350 false))) (let ((.def_352 (and .def_351 .def_349))) (let ((.def_353 (and .def_7 .def_73))) (let ((.def_354 (or .def_353 .def_352))) (let ((.def_355 (not .def_353))) (let ((.def_356 (or .def_355 false))) (let ((.def_357 (and .def_356 .def_354))) (let ((.def_358 (and .def_1 .def_73))) (let ((.def_359 (or .def_358 .def_357))) (let ((.def_360 (not .def_358))) (let ((.def_361 (or .def_360 false))) (let ((.def_362 (and .def_361 .def_359))) (let ((.def_363 (and .def_69 .def_72))) (let ((.def_364 (or .def_363 .def_362))) (let ((.def_365 (not .def_363))) (let ((.def_366 (or .def_365 false))) (let ((.def_367 (and .def_366 .def_364))) (let ((.def_368 (and .def_13 .def_72))) (let ((.def_369 (or .def_368 .def_367))) (let ((.def_370 (not .def_368))) (let ((.def_371 (or .def_370 true))) (let ((.def_372 (and .def_371 .def_369))) (let ((.def_373 (and .def_7 .def_72))) (let ((.def_374 (or .def_373 .def_372))) (let ((.def_375 (not .def_373))) (let ((.def_376 (or .def_375 false))) (let ((.def_377 (and .def_376 .def_374))) (let ((.def_378 (and .def_1 .def_72))) (let ((.def_379 (or .def_378 .def_377))) (let ((.def_380 (not .def_378))) (let ((.def_381 (or .def_380 false))) (let ((.def_382 (and .def_381 .def_379))) (let ((.def_383 (and .def_69 .def_71))) (let ((.def_384 (or .def_383 .def_382))) (let ((.def_385 (not .def_383))) (let ((.def_386 (or .def_385 false))) (let ((.def_387 (and .def_386 .def_384))) (let ((.def_388 (and .def_13 .def_71))) (let ((.def_389 (or .def_388 .def_387))) (let ((.def_390 (not .def_388))) (let ((.def_391 (or .def_390 false))) (let ((.def_392 (and .def_391 .def_389))) (let ((.def_393 (and .def_7 .def_71))) (let ((.def_394 (or .def_393 .def_392))) (let ((.def_395 (not .def_393))) (let ((.def_396 (or .def_395 true))) (let ((.def_397 (and .def_396 .def_394))) (let ((.def_398 (and .def_1 .def_71))) (let ((.def_399 (or .def_398 .def_397))) (let ((.def_400 (not .def_398))) (let ((.def_401 (or .def_400 false))) (let ((.def_402 (and .def_401 .def_399))) (let ((.def_403 (= 0.0 __z3_61))) (let ((.def_404 (and .def_403 .def_402 .def_327 .def_326 .def_316 .def_306))) (let ((.def_405 (<= __z3_24 __z3_24))) (let ((.def_406 (and .def_228 .def_405))) (let ((.def_407 (=> .def_406 .def_404))) (let ((.def_408 (<= __z3_49 15.0))) (let ((.def_409 (<= 15.0 __z3_49))) (let ((.def_410 (and .def_409 .def_408))) (let ((.def_411 (and .def_410 .def_294 .def_407 .def_297 .def_284 .def_266 .def_246))) (let ((.def_412 (=> __z3_48 .def_411))) (let ((.def_413 (<= __z3_53 31.0))) (let ((.def_414 (<= 0.0 __z3_53))) (let ((.def_415 (<= __z3_52 31.0))) (let ((.def_416 (<= 0.0 __z3_52))) (let ((.def_417 (or .def_178 .def_43 .def_37 .def_31))) (let ((.def_418 (<= __z3_51 31.0))) (let ((.def_419 (<= 0.0 __z3_51))) (let ((.def_420 (<= __z3_50 31.0))) (let ((.def_421 (<= 0.0 __z3_50))) (let ((.def_422 (or .def_125 .def_116 .def_107 .def_95))) (let ((.def_423 (and __z3_47 true .def_31))) (let ((.def_424 (= __z3_16 __z3_53))) (let ((.def_425 (not .def_424))) (let ((.def_426 (=> .def_425 .def_423))) (let ((.def_427 (and __z3_47 true .def_37))) (let ((.def_428 (= __z3_15 __z3_52))) (let ((.def_429 (not .def_428))) (let ((.def_430 (=> .def_429 .def_427))) (let ((.def_431 (and __z3_47 true .def_43))) (let ((.def_432 (= __z3_14 __z3_51))) (let ((.def_433 (not .def_432))) (let ((.def_434 (=> .def_433 .def_431))) (let ((.def_435 (and __z3_47 true .def_178))) (let ((.def_436 (= __z3_13 __z3_50))) (let ((.def_437 (not .def_436))) (let ((.def_438 (=> .def_437 .def_435))) (let ((.def_439 (= __z3_23 .def_97))) (let ((.def_440 (and __z3_47 true .def_439 .def_96 .def_95))) (let ((.def_441 (= __z3_12 __z3_28))) (let ((.def_442 (not .def_441))) (let ((.def_443 (=> .def_442 .def_440))) (let ((.def_444 (and __z3_47 true .def_439 .def_96 .def_107))) (let ((.def_445 (= __z3_11 __z3_27))) (let ((.def_446 (not .def_445))) (let ((.def_447 (=> .def_446 .def_444))) (let ((.def_448 (and __z3_47 true .def_439 .def_96 .def_116))) (let ((.def_449 (= __z3_10 __z3_26))) (let ((.def_450 (not .def_449))) (let ((.def_451 (=> .def_450 .def_448))) (let ((.def_452 (and __z3_47 true .def_439 .def_96 .def_125))) (let ((.def_453 (= __z3_1 __z3_25))) (let ((.def_454 (not .def_453))) (let ((.def_455 (=> .def_454 .def_452))) (let ((.def_456 (and __z3_47 true .def_96 .def_31))) (let ((.def_457 (= __z3_0 __z3_43))) (let ((.def_458 (not .def_457))) (let ((.def_459 (=> .def_458 .def_456))) (let ((.def_460 (and __z3_47 true .def_96 .def_37))) (let ((.def_461 (= __z3_9 __z3_42))) (let ((.def_462 (not .def_461))) (let ((.def_463 (=> .def_462 .def_460))) (let ((.def_464 (and __z3_47 true .def_96 .def_43))) (let ((.def_465 (= __z3_8 __z3_41))) (let ((.def_466 (not .def_465))) (let ((.def_467 (=> .def_466 .def_464))) (let ((.def_468 (and __z3_47 true .def_96 .def_178))) (let ((.def_469 (= __z3_7 __z3_40))) (let ((.def_470 (not .def_469))) (let ((.def_471 (=> .def_470 .def_468))) (let ((.def_472 (= __z3_23 .def_152))) (let ((.def_473 (and __z3_47 true .def_472 .def_96 .def_31))) (let ((.def_474 (= __z3_6 __z3_39))) (let ((.def_475 (not .def_474))) (let ((.def_476 (=> .def_475 .def_473))) (let ((.def_477 (and __z3_47 true .def_472 .def_96 .def_37))) (let ((.def_478 (= __z3_5 __z3_38))) (let ((.def_479 (not .def_478))) (let ((.def_480 (=> .def_479 .def_477))) (let ((.def_481 (and __z3_47 true .def_472 .def_96 .def_43))) (let ((.def_482 (= __z3_4 __z3_37))) (let ((.def_483 (not .def_482))) (let ((.def_484 (=> .def_483 .def_481))) (let ((.def_485 (and __z3_47 true .def_472 .def_96 .def_178))) (let ((.def_486 (= __z3_3 __z3_36))) (let ((.def_487 (not .def_486))) (let ((.def_488 (=> .def_487 .def_485))) (let ((.def_489 (and __z3_47 true .def_472))) (let ((.def_490 (and __z3_47 true))) (let ((.def_491 (and .def_490 .def_489))) (let ((.def_492 (not .def_491))) (let ((.def_493 (or .def_490 .def_489))) (let ((.def_494 (= __z3_2 __z3_35))) (let ((.def_495 (not .def_494))) (let ((.def_496 (=> .def_495 .def_493))) (let ((.def_497 (= .def_152 .def_149))) (let ((.def_498 (and __z3_47 __z3_48 .def_497))) (let ((.def_499 (not .def_498))) (let ((.def_500 (= .def_97 __z3_24))) (let ((.def_501 (and __z3_47 __z3_48 .def_500))) (let ((.def_502 (not .def_501))) (let ((.def_503 (= __z3_23 .def_216))) (let ((.def_504 (and __z3_47 __z3_48 .def_503))) (let ((.def_505 (not .def_504))) (let ((.def_506 (= .def_199 .def_216))) (let ((.def_507 (and __z3_47 __z3_48 .def_506))) (let ((.def_508 (not .def_507))) (let ((.def_509 (= __z3_23 __z3_24))) (let ((.def_510 (and __z3_47 __z3_48 .def_509))) (let ((.def_511 (not .def_510))) (let ((.def_512 (= .def_97 .def_92))) (let ((.def_513 (and __z3_47 __z3_48 .def_512))) (let ((.def_514 (not .def_513))) (let ((.def_515 (= __z3_23 .def_149))) (let ((.def_516 (and __z3_47 __z3_48 .def_515))) (let ((.def_517 (not .def_516))) (let ((.def_518 (<= 0.0 __z3_23))) (let ((.def_519 (and .def_96 .def_116))) (let ((.def_520 (or .def_519 __z3_17))) (let ((.def_521 (not .def_519))) (let ((.def_522 (or .def_521 __z3_20))) (let ((.def_523 (and .def_522 .def_520))) (let ((.def_524 (and .def_96 .def_107))) (let ((.def_525 (or .def_524 .def_523))) (let ((.def_526 (not .def_524))) (let ((.def_527 (or .def_526 __z3_21))) (let ((.def_528 (and .def_527 .def_525))) (let ((.def_529 (and .def_96 .def_95))) (let ((.def_530 (or .def_529 .def_528))) (let ((.def_531 (not .def_529))) (let ((.def_532 (or .def_531 __z3_22))) (let ((.def_533 (and .def_532 .def_530))) (let ((.def_534 (= .def_533 true))) (let ((.def_535 (=> true .def_534))) (let ((.def_536 (and .def_98 .def_535))) (let ((.def_537 (or .def_519 __z3_25))) (let ((.def_538 (or .def_521 __z3_26))) (let ((.def_539 (and .def_538 .def_537))) (let ((.def_540 (or .def_524 .def_539))) (let ((.def_541 (or .def_526 __z3_27))) (let ((.def_542 (and .def_541 .def_540))) (let ((.def_543 (or .def_529 .def_542))) (let ((.def_544 (or .def_531 __z3_28))) (let ((.def_545 (and .def_544 .def_543))) (let ((.def_546 (= .def_545 true))) (let ((.def_547 (=> true .def_546))) (let ((.def_548 (and .def_439 .def_547))) (let ((.def_549 (or .def_548 .def_536))) (let ((.def_550 (and .def_96 .def_43))) (let ((.def_551 (or .def_550 __z3_30))) (let ((.def_552 (not .def_550))) (let ((.def_553 (or .def_552 __z3_32))) (let ((.def_554 (and .def_553 .def_551))) (let ((.def_555 (and .def_96 .def_37))) (let ((.def_556 (or .def_555 .def_554))) (let ((.def_557 (not .def_555))) (let ((.def_558 (or .def_557 __z3_33))) (let ((.def_559 (and .def_558 .def_556))) (let ((.def_560 (and .def_96 .def_31))) (let ((.def_561 (or .def_560 .def_559))) (let ((.def_562 (not .def_560))) (let ((.def_563 (or .def_562 __z3_34))) (let ((.def_564 (and .def_563 .def_561))) (let ((.def_565 (= .def_564 true))) (let ((.def_566 (=> true .def_565))) (let ((.def_567 (and .def_153 .def_566 .def_248))) (let ((.def_568 (= __z3_35 false))) (let ((.def_569 (=> true .def_568))) (let ((.def_570 (or .def_550 __z3_36))) (let ((.def_571 (or .def_552 __z3_37))) (let ((.def_572 (and .def_571 .def_570))) (let ((.def_573 (or .def_555 .def_572))) (let ((.def_574 (or .def_557 __z3_38))) (let ((.def_575 (and .def_574 .def_573))) (let ((.def_576 (or .def_560 .def_575))) (let ((.def_577 (or .def_562 __z3_39))) (let ((.def_578 (and .def_577 .def_576))) (let ((.def_579 (= .def_578 true))) (let ((.def_580 (=> true .def_579))) (let ((.def_581 (and .def_472 .def_580 .def_569))) (let ((.def_582 (or .def_581 .def_567))) (let ((.def_583 (or .def_550 __z3_40))) (let ((.def_584 (or .def_552 __z3_41))) (let ((.def_585 (and .def_584 .def_583))) (let ((.def_586 (or .def_555 .def_585))) (let ((.def_587 (or .def_557 __z3_42))) (let ((.def_588 (and .def_587 .def_586))) (let ((.def_589 (or .def_560 .def_588))) (let ((.def_590 (or .def_562 __z3_43))) (let ((.def_591 (and .def_590 .def_589))) (let ((.def_592 (= .def_591 true))) (let ((.def_593 (=> true .def_592))) (let ((.def_594 (= __z3_35 true))) (let ((.def_595 (=> true .def_594))) (let ((.def_596 (+ __z3_44 1.0))) (let ((.def_597 (= __z3_45 .def_596))) (let ((.def_598 (=> true .def_597))) (let ((.def_599 (= __z3_23 __z3_23))) (let ((.def_600 (and .def_599 .def_598 .def_595 .def_593))) (let ((.def_601 (or .def_519 __z3_40))) (let ((.def_602 (or .def_521 __z3_41))) (let ((.def_603 (and .def_602 .def_601))) (let ((.def_604 (or .def_524 .def_603))) (let ((.def_605 (or .def_526 __z3_42))) (let ((.def_606 (and .def_605 .def_604))) (let ((.def_607 (or .def_529 .def_606))) (let ((.def_608 (or .def_531 __z3_43))) (let ((.def_609 (and .def_608 .def_607))) (let ((.def_610 (< __z3_23 .def_199))) (let ((.def_611 (and .def_610 .def_200))) (let ((.def_612 (=> .def_611 .def_609))) (let ((.def_613 (or .def_519 __z3_7))) (let ((.def_614 (or .def_521 __z3_8))) (let ((.def_615 (and .def_614 .def_613))) (let ((.def_616 (or .def_524 .def_615))) (let ((.def_617 (or .def_526 __z3_9))) (let ((.def_618 (and .def_617 .def_616))) (let ((.def_619 (or .def_529 .def_618))) (let ((.def_620 (or .def_531 __z3_0))) (let ((.def_621 (and .def_620 .def_619))) (let ((.def_622 (<= .def_199 __z3_23))) (let ((.def_623 (< (- 1.0) .def_199))) (let ((.def_624 (and .def_623 .def_622))) (let ((.def_625 (=> .def_624 .def_621))) (let ((.def_626 (or .def_550 __z3_25))) (let ((.def_627 (or .def_552 __z3_26))) (let ((.def_628 (and .def_627 .def_626))) (let ((.def_629 (or .def_555 .def_628))) (let ((.def_630 (or .def_557 __z3_27))) (let ((.def_631 (and .def_630 .def_629))) (let ((.def_632 (or .def_560 .def_631))) (let ((.def_633 (or .def_562 __z3_28))) (let ((.def_634 (and .def_633 .def_632))) (let ((.def_635 (not .def_591))) (let ((.def_636 (not .def_578))) (let ((.def_637 (and .def_43 .def_125))) (let ((.def_638 (or .def_637 false))) (let ((.def_639 (not .def_637))) (let ((.def_640 (or .def_639 false))) (let ((.def_641 (and .def_640 .def_638))) (let ((.def_642 (and .def_37 .def_125))) (let ((.def_643 (or .def_642 .def_641))) (let ((.def_644 (not .def_642))) (let ((.def_645 (or .def_644 false))) (let ((.def_646 (and .def_645 .def_643))) (let ((.def_647 (and .def_31 .def_125))) (let ((.def_648 (or .def_647 .def_646))) (let ((.def_649 (not .def_647))) (let ((.def_650 (or .def_649 false))) (let ((.def_651 (and .def_650 .def_648))) (let ((.def_652 (and .def_178 .def_116))) (let ((.def_653 (or .def_652 .def_651))) (let ((.def_654 (not .def_652))) (let ((.def_655 (or .def_654 true))) (let ((.def_656 (and .def_655 .def_653))) (let ((.def_657 (and .def_43 .def_116))) (let ((.def_658 (or .def_657 .def_656))) (let ((.def_659 (not .def_657))) (let ((.def_660 (or .def_659 false))) (let ((.def_661 (and .def_660 .def_658))) (let ((.def_662 (and .def_37 .def_116))) (let ((.def_663 (or .def_662 .def_661))) (let ((.def_664 (not .def_662))) (let ((.def_665 (or .def_664 false))) (let ((.def_666 (and .def_665 .def_663))) (let ((.def_667 (and .def_31 .def_116))) (let ((.def_668 (or .def_667 .def_666))) (let ((.def_669 (not .def_667))) (let ((.def_670 (or .def_669 false))) (let ((.def_671 (and .def_670 .def_668))) (let ((.def_672 (and .def_178 .def_107))) (let ((.def_673 (or .def_672 .def_671))) (let ((.def_674 (not .def_672))) (let ((.def_675 (or .def_674 false))) (let ((.def_676 (and .def_675 .def_673))) (let ((.def_677 (and .def_43 .def_107))) (let ((.def_678 (or .def_677 .def_676))) (let ((.def_679 (not .def_677))) (let ((.def_680 (or .def_679 true))) (let ((.def_681 (and .def_680 .def_678))) (let ((.def_682 (and .def_37 .def_107))) (let ((.def_683 (or .def_682 .def_681))) (let ((.def_684 (not .def_682))) (let ((.def_685 (or .def_684 false))) (let ((.def_686 (and .def_685 .def_683))) (let ((.def_687 (and .def_31 .def_107))) (let ((.def_688 (or .def_687 .def_686))) (let ((.def_689 (not .def_687))) (let ((.def_690 (or .def_689 false))) (let ((.def_691 (and .def_690 .def_688))) (let ((.def_692 (and .def_178 .def_95))) (let ((.def_693 (or .def_692 .def_691))) (let ((.def_694 (not .def_692))) (let ((.def_695 (or .def_694 false))) (let ((.def_696 (and .def_695 .def_693))) (let ((.def_697 (and .def_43 .def_95))) (let ((.def_698 (or .def_697 .def_696))) (let ((.def_699 (not .def_697))) (let ((.def_700 (or .def_699 false))) (let ((.def_701 (and .def_700 .def_698))) (let ((.def_702 (and .def_37 .def_95))) (let ((.def_703 (or .def_702 .def_701))) (let ((.def_704 (not .def_702))) (let ((.def_705 (or .def_704 true))) (let ((.def_706 (and .def_705 .def_703))) (let ((.def_707 (and .def_31 .def_95))) (let ((.def_708 (or .def_707 .def_706))) (let ((.def_709 (not .def_707))) (let ((.def_710 (or .def_709 false))) (let ((.def_711 (and .def_710 .def_708))) (let ((.def_712 (= 0.0 __z3_45))) (let ((.def_713 (and .def_712 .def_711 .def_327 .def_636 .def_635 .def_634))) (let ((.def_714 (<= __z3_23 __z3_24))) (let ((.def_715 (< __z3_23 __z3_23))) (let ((.def_716 (and .def_715 .def_714))) (let ((.def_717 (=> .def_716 .def_713))) (let ((.def_718 (or .def_550 __z3_1))) (let ((.def_719 (or .def_552 __z3_10))) (let ((.def_720 (and .def_719 .def_718))) (let ((.def_721 (or .def_555 .def_720))) (let ((.def_722 (or .def_557 __z3_11))) (let ((.def_723 (and .def_722 .def_721))) (let ((.def_724 (or .def_560 .def_723))) (let ((.def_725 (or .def_562 __z3_12))) (let ((.def_726 (and .def_725 .def_724))) (let ((.def_727 (or .def_550 __z3_7))) (let ((.def_728 (or .def_552 __z3_8))) (let ((.def_729 (and .def_728 .def_727))) (let ((.def_730 (or .def_555 .def_729))) (let ((.def_731 (or .def_557 __z3_9))) (let ((.def_732 (and .def_731 .def_730))) (let ((.def_733 (or .def_560 .def_732))) (let ((.def_734 (or .def_562 __z3_0))) (let ((.def_735 (and .def_734 .def_733))) (let ((.def_736 (not .def_735))) (let ((.def_737 (or .def_550 __z3_3))) (let ((.def_738 (or .def_552 __z3_4))) (let ((.def_739 (and .def_738 .def_737))) (let ((.def_740 (or .def_555 .def_739))) (let ((.def_741 (or .def_557 __z3_5))) (let ((.def_742 (and .def_741 .def_740))) (let ((.def_743 (or .def_560 .def_742))) (let ((.def_744 (or .def_562 __z3_6))) (let ((.def_745 (and .def_744 .def_743))) (let ((.def_746 (not .def_745))) (let ((.def_747 (not __z3_2))) (let ((.def_748 (= 0.0 __z3_44))) (let ((.def_749 (and .def_748 .def_711 .def_747 .def_746 .def_736 .def_726))) (let ((.def_750 (<= __z3_23 __z3_23))) (let ((.def_751 (< (- 1.0) __z3_23))) (let ((.def_752 (and .def_751 .def_750))) (let ((.def_753 (=> .def_752 .def_749))) (let ((.def_754 (<= __z3_46 15.0))) (let ((.def_755 (<= 15.0 __z3_46))) (let ((.def_756 (and .def_755 .def_754))) (let ((.def_757 (and .def_756 .def_200 .def_753 .def_717 .def_625 .def_612 .def_600 .def_582 .def_549))) (let ((.def_758 (=> __z3_47 .def_757))) (let ((.def_759 (<= __z3_16 31.0))) (let ((.def_760 (<= 0.0 __z3_16))) (let ((.def_761 (<= __z3_15 31.0))) (let ((.def_762 (<= 0.0 __z3_15))) (let ((.def_763 (<= __z3_14 31.0))) (let ((.def_764 (<= 0.0 __z3_14))) (let ((.def_765 (<= __z3_13 31.0))) (let ((.def_766 (<= 0.0 __z3_13))) (let ((.def_767 (= __z3_16 0.0))) (let ((.def_768 (= __z3_15 0.0))) (let ((.def_769 (= __z3_14 0.0))) (let ((.def_770 (= __z3_13 0.0))) (let ((.def_771 (= false false))) (let ((.def_772 (= __z3_12 false))) (let ((.def_773 (= __z3_11 false))) (let ((.def_774 (= __z3_10 false))) (let ((.def_775 (= __z3_9 false))) (let ((.def_776 (= __z3_8 false))) (let ((.def_777 (= __z3_7 false))) (let ((.def_778 (= __z3_6 false))) (let ((.def_779 (= __z3_5 false))) (let ((.def_780 (= __z3_4 false))) (let ((.def_781 (= __z3_3 false))) (let ((.def_782 (= __z3_2 false))) (let ((.def_783 (= __z3_1 true))) (let ((.def_784 (= __z3_0 true))) (let ((.def_785 (= true true))) (let ((.def_786 (= 0.0 0.0))) (let ((.def_787 (and .def_786 .def_785 .def_785 .def_785 .def_784 .def_783 .def_782 .def_781 .def_780 .def_779 .def_778 .def_777 .def_776 .def_775 .def_774 .def_773 .def_772 .def_771 .def_771 .def_771 .def_771 .def_771 .def_771 .def_771 .def_771 .def_771 .def_771 .def_771 .def_771 .def_771 .def_770 .def_769 .def_768 .def_767 .def_766 .def_765 .def_764 .def_763 .def_762 .def_761 .def_760 .def_759 .def_758 .def_518 .def_517 .def_514 .def_511 .def_508 .def_505 .def_502 .def_499 .def_496 .def_492 .def_488 .def_484 .def_480 .def_476 .def_471 .def_467 .def_463 .def_459 .def_455 .def_451 .def_447 .def_443 .def_438 .def_434 .def_430 .def_426 .def_422 .def_421 .def_420 .def_419 .def_418 .def_417 .def_416 .def_96 .def_415 .def_414 .def_413 .def_412 .def_228 .def_227 .def_225 .def_222 .def_219 .def_215 .def_212 .def_209 .def_206 .def_198 .def_194 .def_192 .def_189 .def_185 .def_181 .def_176 .def_172 .def_168 .def_164 .def_160 .def_156 .def_148 .def_144 .def_140 .def_136 .def_132 .def_128 .def_123 .def_119 .def_114 .def_110 .def_105 .def_101 .def_91 .def_87 .def_83 .def_79 .def_75 .def_70 .def_68 .def_67 .def_66 .def_65 .def_64 .def_63 .def_62 .def_61 .def_60 .def_59 .def_57 .def_55 .def_53 .def_51 .def_49 .def_47 .def_44 .def_41 .def_38 .def_35 .def_32 .def_29 .def_27 .def_25 .def_23 .def_21 .def_19 .def_17 .def_14 .def_11 .def_8 .def_5 .def_2))) .def_787)))))))))))))))))))))))))))))))))))))))))))))))))))))))))))))))))))))))))))))))))))))))))))))))))))))))))))))))))))))))))))))))))))))))))))))))))))))))))))))))))))))))))))))))))))))))))))))))))))))))))))))))))))))))))))))))))))))))))))))))))))))))))))))))))))))))))))))))))))))))))))))))))))))))))))))))))))))))))))))))))))))))))))))))))))))))))))))))))))))))))))))))))))))))))))))))))))))))))))))))))))))))))))))))))))))))))))))))))))))))))))))))))))))))))))))))))))))))))))))))))))))))))))))))))))))))))))))))))))))))))))))))))))))))))))))))))))))))))))))))))))))))))))))))))))))))))))))))))))))))))))))))))))))))))))))))))))))))))))))))))))))))))))))))))))))))))))))))))))))))))))))))))))))))))))))))))))))))))))))))))))))))))))))))))))))))))))))))))))))))))))))))))))))))))))))))))))))
(check-sat)
